NAME: random20
TYPE: TSP
COMMENT: Randomly Generated 20-city TSP
DIMENSION: 20
EDGE_WEIGHT_TYPE: EUC_2D
NODE_COORD_SECTION
1 456.0 320.0
2 120.0 600.0
3 320.0 450.0
4 875.0 300.0
5 230.0 700.0
6 710.0 500.0
7 590.0 860.0
8 740.0 330.0
9 330.0 220.0
10 150.0 660.0
11 680.0 320.0
12 490.0 770.0
13 960.0 140.0
14 500.0 300.0
15 820.0 540.0
16 410.0 620.0
17 250.0 500.0
18 300.0 410.0
19 420.0 720.0
20 510.0 380.0
EOF
